data/CVRPLIB/Vrp-Set-XML100/instances/XML100_3216_21.vrp
NAME : XML100_3216_21
COMMENT : Generated by Queiroga, Sadykov, Uchoa, and Vidal (2021)
TYPE : CVRP
DIMENSION : 101
EDGE_WEIGHT_TYPE : EUC_2D
CAPACITY : 35
NODE_COORD_SECTION
1    0    0   
2    31   93  
3    259  820 
4    251  484 
5    311  719 
6    124  539 
7    485  150 
8    156  678 
9    351  747 
10   695  49  
11   442  576 
12   504  549 
13   788  18  
14   325  574 
15   174  561 
16   25   550 
17   313  527 
18   652  29  
19   348  761 
20   698  21  
21   724  88  
22   81   637 
23   662  105 
24   569  54  
25   191  887 
26   221  657 
27   392  163 
28   234  625 
29   264  822 
30   30   98  
31   156  579 
32   138  643 
33   108  694 
34   213  435 
35   607  509 
36   157  658 
37   136  129 
38   34   53  
39   438  922 
40   563  171 
41   161  357 
42   293  564 
43   751  211 
44   305  784 
45   41   71  
46   14   200 
47   252  851 
48   199  617 
49   263  707 
50   590  211 
51   318  777 
52   54   431 
53   320  722 
54   214  878 
55   457  760 
56   297  851 
57   77   714 
58   332  750 
59   157  638 
60   126  398 
61   331  762 
62   412  570 
63   733  69  
64   32   147 
65   212  631 
66   324  731 
67   188  527 
68   418  675 
69   590  119 
70   417  703 
71   212  612 
72   64   108 
73   569  155 
74   232  643 
75   178  667 
76   390  663 
77   287  726 
78   673  19  
79   754  158 
80   170  645 
81   147  578 
82   263  625 
83   690  11  
84   58   161 
85   700  29  
86   132  801 
87   133  583 
88   21   269 
89   346  825 
90   164  477 
91   157  647 
92   190  663 
93   16   611 
94   15   107 
95   48   96  
96   442  17  
97   54   127 
98   580  126 
99   698  87  
100  78   597 
101  76   156 
DEMAND_SECTION
1    0   
2    1   
3    1   
4    1   
5    1   
6    1   
7    1   
8    1   
9    1   
10   1   
11   1   
12   1   
13   1   
14   1   
15   1   
16   1   
17   1   
18   1   
19   1   
20   1   
21   1   
22   1   
23   1   
24   1   
25   1   
26   1   
27   1   
28   1   
29   1   
30   1   
31   1   
32   1   
33   1   
34   1   
35   1   
36   1   
37   1   
38   1   
39   1   
40   1   
41   1   
42   1   
43   1   
44   1   
45   1   
46   1   
47   1   
48   1   
49   1   
50   1   
51   1   
52   1   
53   1   
54   1   
55   1   
56   1   
57   1   
58   1   
59   1   
60   1   
61   1   
62   1   
63   1   
64   1   
65   1   
66   1   
67   1   
68   1   
69   1   
70   1   
71   1   
72   1   
73   1   
74   1   
75   1   
76   1   
77   1   
78   1   
79   1   
80   1   
81   1   
82   1   
83   1   
84   1   
85   1   
86   1   
87   1   
88   1   
89   1   
90   1   
91   1   
92   1   
93   1   
94   1   
95   1   
96   1   
97   1   
98   1   
99   1   
100  1   
101  1   
DEPOT_SECTION
1
-1
EOF
