data/CVRPLIB/Vrp-Set-XML100/solutions/XML100_3216_21.sol
Route #1: 37 44 1 29 94 71 96 36 26 6 49 39 72 97 68 22 42 78 12 62 20 98 9 84 19 82 77 17 23 95
Route #2: 83 59 89 66 14 47 70 64 73 27 81 4 52 65 57 8 18 60 50 43 76 48 25 91 74 7 35 90 79 58 31 30 80 86 5
Route #3: 100 40 33 3 16 41 13 61 10 11 34 75 67 69 54 38 88 55 28 2 46 53 24 85 56 32 21 99 92 15 51 87 45 63 93
Cost 7063
